\ Model SimpleTruckLoadingProblem
\ LP format - for model browsing. Use MPS format to capture full model detail.
Maximize
  replenishment_time
Subject To
 time_constraint_0_0_for_minimum: - X[0,0,0] - X[1,0,0] - X[2,0,0]
   + 10 replenishment_time <= 0
 time_constraint_0_1_for_minimum: - X[0,0,1] - X[1,0,1] - X[2,0,1]
   + 10 replenishment_time <= 0
 time_constraint_0_2_for_minimum: - X[0,0,2] - X[1,0,2] - X[2,0,2]
   + 8 replenishment_time <= 0
 time_constraint_0_3_for_minimum: - X[0,0,3] - X[1,0,3] - X[2,0,3]
   + 9 replenishment_time <= 0
 time_constraint_0_4_for_minimum: - X[0,0,4] - X[1,0,4] - X[2,0,4]
   + 8 replenishment_time <= 0
 time_constraint_0_5_for_minimum: - X[0,0,5] - X[1,0,5] - X[2,0,5]
   + 9 replenishment_time <= 0
 time_constraint_0_6_for_minimum: - X[0,0,6] - X[1,0,6] - X[2,0,6]
   + 10 replenishment_time <= 0
 time_constraint_0_7_for_minimum: - X[0,0,7] - X[1,0,7] - X[2,0,7]
   + 8 replenishment_time <= 0
 time_constraint_0_8_for_minimum: - X[0,0,8] - X[1,0,8] - X[2,0,8]
   + 9 replenishment_time <= 0
 time_constraint_0_9_for_minimum: - X[0,0,9] - X[1,0,9] - X[2,0,9]
   + 11 replenishment_time <= 0
 time_constraint_0_10_for_minimum: - X[0,0,10] - X[1,0,10] - X[2,0,10]
   + 11 replenishment_time <= 0
 time_constraint_0_11_for_minimum: - X[0,0,11] - X[1,0,11] - X[2,0,11]
   + 9 replenishment_time <= 0
 time_constraint_0_12_for_minimum: - X[0,0,12] - X[1,0,12] - X[2,0,12]
   + 10 replenishment_time <= 0
 time_constraint_0_13_for_minimum: - X[0,0,13] - X[1,0,13] - X[2,0,13]
   + 10 replenishment_time <= 0
 time_constraint_0_14_for_minimum: - X[0,0,14] - X[1,0,14] - X[2,0,14]
   + 9 replenishment_time <= 0
 time_constraint_1_0_for_minimum: - X[0,1,0] - X[1,1,0] - X[2,1,0]
   + 20 replenishment_time <= 0
 time_constraint_1_1_for_minimum: - X[0,1,1] - X[1,1,1] - X[2,1,1]
   + 5 replenishment_time <= 0
 time_constraint_1_2_for_minimum: - X[0,1,2] - X[1,1,2] - X[2,1,2]
   + 19 replenishment_time <= 0
 time_constraint_1_3_for_minimum: - X[0,1,3] - X[1,1,3] - X[2,1,3]
   + 2 replenishment_time <= 0
 time_constraint_1_4_for_minimum: - X[0,1,4] - X[1,1,4] - X[2,1,4]
   + 20 replenishment_time <= 0
 time_constraint_1_5_for_minimum: - X[0,1,5] - X[1,1,5] - X[2,1,5]
   + 16 replenishment_time <= 0
 time_constraint_1_6_for_minimum: - X[0,1,6] - X[1,1,6] - X[2,1,6]
   + 11 replenishment_time <= 0
 time_constraint_1_7_for_minimum: - X[0,1,7] - X[1,1,7] - X[2,1,7]
   + 16 replenishment_time <= 0
 time_constraint_1_8_for_minimum: - X[0,1,8] - X[1,1,8] - X[2,1,8]
   + 11 replenishment_time <= 0
 time_constraint_1_9_for_minimum: - X[0,1,9] - X[1,1,9] - X[2,1,9]
   + 18 replenishment_time <= 0
 time_constraint_1_10_for_minimum: - X[0,1,10] - X[1,1,10] - X[2,1,10]
   + 3 replenishment_time <= 0
 time_constraint_1_11_for_minimum: - X[0,1,11] - X[1,1,11] - X[2,1,11]
   + 12 replenishment_time <= 0
 time_constraint_1_12_for_minimum: - X[0,1,12] - X[1,1,12] - X[2,1,12]
   + 20 replenishment_time <= 0
 time_constraint_1_13_for_minimum: - X[0,1,13] - X[1,1,13] - X[2,1,13]
   + 21 replenishment_time <= 0
 time_constraint_1_14_for_minimum: - X[0,1,14] - X[1,1,14] - X[2,1,14]
   + 6 replenishment_time <= 0
 time_constraint_2_0_for_minimum: - X[0,2,0] - X[1,2,0] - X[2,2,0]
   + 10 replenishment_time <= 0
 time_constraint_2_1_for_minimum: - X[0,2,1] - X[1,2,1] - X[2,2,1]
   + 11 replenishment_time <= 0
 time_constraint_2_2_for_minimum: - X[0,2,2] - X[1,2,2] - X[2,2,2]
   + 10 replenishment_time <= 0
 time_constraint_2_3_for_minimum: - X[0,2,3] - X[1,2,3] - X[2,2,3]
   + 10 replenishment_time <= 0
 time_constraint_2_4_for_minimum: - X[0,2,4] - X[1,2,4] - X[2,2,4]
   + 11 replenishment_time <= 0
 time_constraint_2_5_for_minimum: - X[0,2,5] - X[1,2,5] - X[2,2,5]
   + 10 replenishment_time <= 0
 time_constraint_2_6_for_minimum: - X[0,2,6] - X[1,2,6] - X[2,2,6]
   + 11 replenishment_time <= 0
 time_constraint_2_7_for_minimum: - X[0,2,7] - X[1,2,7] - X[2,2,7]
   + 10 replenishment_time <= 0
 time_constraint_2_8_for_minimum: - X[0,2,8] - X[1,2,8] - X[2,2,8]
   + 11 replenishment_time <= 0
 time_constraint_2_9_for_minimum: - X[0,2,9] - X[1,2,9] - X[2,2,9]
   + 10 replenishment_time <= 0
 time_constraint_2_10_for_minimum: - X[0,2,10] - X[1,2,10] - X[2,2,10]
   + 10 replenishment_time <= 0
 time_constraint_2_11_for_minimum: - X[0,2,11] - X[1,2,11] - X[2,2,11]
   + 11 replenishment_time <= 0
 time_constraint_2_12_for_minimum: - X[0,2,12] - X[1,2,12] - X[2,2,12]
   + 11 replenishment_time <= 0
 time_constraint_2_13_for_minimum: - X[0,2,13] - X[1,2,13] - X[2,2,13]
   + 11 replenishment_time <= 0
 time_constraint_2_14_for_minimum: - X[0,2,14] - X[1,2,14] - X[2,2,14]
   + 11 replenishment_time <= 0
 time_constraint_3_0_for_minimum: - X[0,3,0] - X[1,3,0] - X[2,3,0]
   + 13 replenishment_time <= 0
 time_constraint_3_1_for_minimum: - X[0,3,1] - X[1,3,1] - X[2,3,1]
   + 25 replenishment_time <= 0
 time_constraint_3_2_for_minimum: - X[0,3,2] - X[1,3,2] - X[2,3,2]
   + 24 replenishment_time <= 0
 time_constraint_3_3_for_minimum: - X[0,3,3] - X[1,3,3] - X[2,3,3]
   + 18 replenishment_time <= 0
 time_constraint_3_4_for_minimum: - X[0,3,4] - X[1,3,4] - X[2,3,4]
   + 19 replenishment_time <= 0
 time_constraint_3_5_for_minimum: - X[0,3,5] - X[1,3,5] - X[2,3,5]
   + 11 replenishment_time <= 0
 time_constraint_3_6_for_minimum: - X[0,3,6] - X[1,3,6] - X[2,3,6]
   + 22 replenishment_time <= 0
 time_constraint_3_7_for_minimum: - X[0,3,7] - X[1,3,7] - X[2,3,7]
   + 12 replenishment_time <= 0
 time_constraint_3_8_for_minimum: - X[0,3,8] - X[1,3,8] - X[2,3,8]
   + 18 replenishment_time <= 0
 time_constraint_3_9_for_minimum: - X[0,3,9] - X[1,3,9] - X[2,3,9]
   + 11 replenishment_time <= 0
 time_constraint_3_10_for_minimum: - X[0,3,10] - X[1,3,10] - X[2,3,10]
   + 10 replenishment_time <= 0
 time_constraint_3_11_for_minimum: - X[0,3,11] - X[1,3,11] - X[2,3,11]
   + 19 replenishment_time <= 0
 time_constraint_3_12_for_minimum: - X[0,3,12] - X[1,3,12] - X[2,3,12]
   + 17 replenishment_time <= 0
 time_constraint_3_13_for_minimum: - X[0,3,13] - X[1,3,13] - X[2,3,13]
   + 20 replenishment_time <= 0
 time_constraint_3_14_for_minimum: - X[0,3,14] - X[1,3,14] - X[2,3,14]
   + 22 replenishment_time <= 0
 time_constraint_4_0_for_minimum: - X[0,4,0] - X[1,4,0] - X[2,4,0]
   + 18 replenishment_time <= 0
 time_constraint_4_1_for_minimum: - X[0,4,1] - X[1,4,1] - X[2,4,1]
   + 6 replenishment_time <= 0
 time_constraint_4_2_for_minimum: - X[0,4,2] - X[1,4,2] - X[2,4,2]
   + 13 replenishment_time <= 0
 time_constraint_4_3_for_minimum: - X[0,4,3] - X[1,4,3] - X[2,4,3]
   + 13 replenishment_time <= 0
 time_constraint_4_4_for_minimum: - X[0,4,4] - X[1,4,4] - X[2,4,4]
   + 13 replenishment_time <= 0
 time_constraint_4_5_for_minimum: - X[0,4,5] - X[1,4,5] - X[2,4,5]
   + 12 replenishment_time <= 0
 time_constraint_4_6_for_minimum: - X[0,4,6] - X[1,4,6] - X[2,4,6]
   + 12 replenishment_time <= 0
 time_constraint_4_7_for_minimum: - X[0,4,7] - X[1,4,7] - X[2,4,7]
   + 16 replenishment_time <= 0
 time_constraint_4_8_for_minimum: - X[0,4,8] - X[1,4,8] - X[2,4,8]
   + 11 replenishment_time <= 0
 time_constraint_4_9_for_minimum: - X[0,4,9] - X[1,4,9] - X[2,4,9]
   + 12 replenishment_time <= 0
 time_constraint_4_10_for_minimum: - X[0,4,10] - X[1,4,10] - X[2,4,10]
   + 14 replenishment_time <= 0
 time_constraint_4_11_for_minimum: - X[0,4,11] - X[1,4,11] - X[2,4,11]
   + 6 replenishment_time <= 0
 time_constraint_4_12_for_minimum: - X[0,4,12] - X[1,4,12] - X[2,4,12]
   + 11 replenishment_time <= 0
 time_constraint_4_13_for_minimum: - X[0,4,13] - X[1,4,13] - X[2,4,13]
   + 6 replenishment_time <= 0
 time_constraint_4_14_for_minimum: - X[0,4,14] - X[1,4,14] - X[2,4,14]
   + 7 replenishment_time <= 0
 time_constraint_5_0_for_minimum: - X[0,5,0] - X[1,5,0] - X[2,5,0]
   + 5 replenishment_time <= 0
 time_constraint_5_1_for_minimum: - X[0,5,1] - X[1,5,1] - X[2,5,1]
   + 7 replenishment_time <= 0
 time_constraint_5_2_for_minimum: - X[0,5,2] - X[1,5,2] - X[2,5,2]
   + 7 replenishment_time <= 0
 time_constraint_5_3_for_minimum: - X[0,5,3] - X[1,5,3] - X[2,5,3]
   + 9 replenishment_time <= 0
 time_constraint_5_4_for_minimum: - X[0,5,4] - X[1,5,4] - X[2,5,4]
   + 10 replenishment_time <= 0
 time_constraint_5_5_for_minimum: - X[0,5,5] - X[1,5,5] - X[2,5,5]
   + 12 replenishment_time <= 0
 time_constraint_5_6_for_minimum: - X[0,5,6] - X[1,5,6] - X[2,5,6]
   + 9 replenishment_time <= 0
 time_constraint_5_7_for_minimum: - X[0,5,7] - X[1,5,7] - X[2,5,7]
   + 12 replenishment_time <= 0
 time_constraint_5_8_for_minimum: - X[0,5,8] - X[1,5,8] - X[2,5,8]
   + 8 replenishment_time <= 0
 time_constraint_5_9_for_minimum: - X[0,5,9] - X[1,5,9] - X[2,5,9]
   + 11 replenishment_time <= 0
 time_constraint_5_10_for_minimum: - X[0,5,10] - X[1,5,10] - X[2,5,10]
   + 9 replenishment_time <= 0
 time_constraint_5_11_for_minimum: - X[0,5,11] - X[1,5,11] - X[2,5,11]
   + 10 replenishment_time <= 0
 time_constraint_5_12_for_minimum: - X[0,5,12] - X[1,5,12] - X[2,5,12]
   + 7 replenishment_time <= 0
 time_constraint_5_13_for_minimum: - X[0,5,13] - X[1,5,13] - X[2,5,13]
   + 13 replenishment_time <= 0
 time_constraint_5_14_for_minimum: - X[0,5,14] - X[1,5,14] - X[2,5,14]
   + 11 replenishment_time <= 0
 time_constraint_6_0_for_minimum: - X[0,6,0] - X[1,6,0] - X[2,6,0]
   + 7 replenishment_time <= 0
 time_constraint_6_1_for_minimum: - X[0,6,1] - X[1,6,1] - X[2,6,1]
   + 17 replenishment_time <= 0
 time_constraint_6_2_for_minimum: - X[0,6,2] - X[1,6,2] - X[2,6,2]
   + 29 replenishment_time <= 0
 time_constraint_6_3_for_minimum: - X[0,6,3] - X[1,6,3] - X[2,6,3]
   + 4 replenishment_time <= 0
 time_constraint_6_4_for_minimum: - X[0,6,4] - X[1,6,4] - X[2,6,4]
   + 11 replenishment_time <= 0
 time_constraint_6_5_for_minimum: - X[0,6,5] - X[1,6,5] - X[2,6,5]
   + 22 replenishment_time <= 0
 time_constraint_6_6_for_minimum: - X[0,6,6] - X[1,6,6] - X[2,6,6]
   + 4 replenishment_time <= 0
 time_constraint_6_7_for_minimum: - X[0,6,7] - X[1,6,7] - X[2,6,7]
   + 22 replenishment_time <= 0
 time_constraint_6_8_for_minimum: - X[0,6,8] - X[1,6,8] - X[2,6,8]
   + 18 replenishment_time <= 0
 time_constraint_6_9_for_minimum: - X[0,6,9] - X[1,6,9] - X[2,6,9]
   + 22 replenishment_time <= 0
 time_constraint_6_10_for_minimum: - X[0,6,10] - X[1,6,10] - X[2,6,10]
   + 17 replenishment_time <= 0
 time_constraint_6_11_for_minimum: - X[0,6,11] - X[1,6,11] - X[2,6,11]
   + 27 replenishment_time <= 0
 time_constraint_6_12_for_minimum: - X[0,6,12] - X[1,6,12] - X[2,6,12]
   + 12 replenishment_time <= 0
 time_constraint_6_13_for_minimum: - X[0,6,13] - X[1,6,13] - X[2,6,13]
   + 18 replenishment_time <= 0
 time_constraint_6_14_for_minimum: - X[0,6,14] - X[1,6,14] - X[2,6,14]
   + 4 replenishment_time <= 0
 time_constraint_7_0_for_minimum: - X[0,7,0] - X[1,7,0] - X[2,7,0]
   + 11 replenishment_time <= 0
 time_constraint_7_1_for_minimum: - X[0,7,1] - X[1,7,1] - X[2,7,1]
   + 9 replenishment_time <= 0
 time_constraint_7_2_for_minimum: - X[0,7,2] - X[1,7,2] - X[2,7,2]
   + 18 replenishment_time <= 0
 time_constraint_7_3_for_minimum: - X[0,7,3] - X[1,7,3] - X[2,7,3]
   + 17 replenishment_time <= 0
 time_constraint_7_4_for_minimum: - X[0,7,4] - X[1,7,4] - X[2,7,4]
   + 5 replenishment_time <= 0
 time_constraint_7_5_for_minimum: - X[0,7,5] - X[1,7,5] - X[2,7,5]
   + 4 replenishment_time <= 0
 time_constraint_7_6_for_minimum: - X[0,7,6] - X[1,7,6] - X[2,7,6]
   + 5 replenishment_time <= 0
 time_constraint_7_7_for_minimum: - X[0,7,7] - X[1,7,7] - X[2,7,7]
   + 6 replenishment_time <= 0
 time_constraint_7_8_for_minimum: - X[0,7,8] - X[1,7,8] - X[2,7,8]
   + 14 replenishment_time <= 0
 time_constraint_7_9_for_minimum: - X[0,7,9] - X[1,7,9] - X[2,7,9]
   + 11 replenishment_time <= 0
 time_constraint_7_10_for_minimum: - X[0,7,10] - X[1,7,10] - X[2,7,10]
   + 11 replenishment_time <= 0
 time_constraint_7_11_for_minimum: - X[0,7,11] - X[1,7,11] - X[2,7,11]
   + 10 replenishment_time <= 0
 time_constraint_7_12_for_minimum: - X[0,7,12] - X[1,7,12] - X[2,7,12]
   + 3 replenishment_time <= 0
 time_constraint_7_13_for_minimum: - X[0,7,13] - X[1,7,13] - X[2,7,13]
   + 9 replenishment_time <= 0
 time_constraint_7_14_for_minimum: - X[0,7,14] - X[1,7,14] - X[2,7,14]
   + 18 replenishment_time <= 0
 time_constraint_8_0_for_minimum: - X[0,8,0] - X[1,8,0] - X[2,8,0]
   + 23 replenishment_time <= 0
 time_constraint_8_1_for_minimum: - X[0,8,1] - X[1,8,1] - X[2,8,1]
   + 17 replenishment_time <= 0
 time_constraint_8_2_for_minimum: - X[0,8,2] - X[1,8,2] - X[2,8,2]
   + 7 replenishment_time <= 0
 time_constraint_8_3_for_minimum: - X[0,8,3] - X[1,8,3] - X[2,8,3]
   + 26 replenishment_time <= 0
 time_constraint_8_4_for_minimum: - X[0,8,4] - X[1,8,4] - X[2,8,4]
   + 13 replenishment_time <= 0
 time_constraint_8_5_for_minimum: - X[0,8,5] - X[1,8,5] - X[2,8,5]
   + 18 replenishment_time <= 0
 time_constraint_8_6_for_minimum: - X[0,8,6] - X[1,8,6] - X[2,8,6]
   + 7 replenishment_time <= 0
 time_constraint_8_7_for_minimum: - X[0,8,7] - X[1,8,7] - X[2,8,7]
   + 11 replenishment_time <= 0
 time_constraint_8_8_for_minimum: - X[0,8,8] - X[1,8,8] - X[2,8,8]
   + 11 replenishment_time <= 0
 time_constraint_8_9_for_minimum: - X[0,8,9] - X[1,8,9] - X[2,8,9]
   + 12 replenishment_time <= 0
 time_constraint_8_10_for_minimum: - X[0,8,10] - X[1,8,10] - X[2,8,10]
   + 3 replenishment_time <= 0
 time_constraint_8_11_for_minimum: - X[0,8,11] - X[1,8,11] - X[2,8,11]
   + 19 replenishment_time <= 0
 time_constraint_8_12_for_minimum: - X[0,8,12] - X[1,8,12] - X[2,8,12]
   + 6 replenishment_time <= 0
 time_constraint_8_13_for_minimum: - X[0,8,13] - X[1,8,13] - X[2,8,13]
   + 18 replenishment_time <= 0
 time_constraint_8_14_for_minimum: - X[0,8,14] - X[1,8,14] - X[2,8,14]
   + 18 replenishment_time <= 0
 time_constraint_9_0_for_minimum: - X[0,9,0] - X[1,9,0] - X[2,9,0]
   + 11 replenishment_time <= 0
 time_constraint_9_1_for_minimum: - X[0,9,1] - X[1,9,1] - X[2,9,1]
   + 9 replenishment_time <= 0
 time_constraint_9_2_for_minimum: - X[0,9,2] - X[1,9,2] - X[2,9,2]
   + 9 replenishment_time <= 0
 time_constraint_9_3_for_minimum: - X[0,9,3] - X[1,9,3] - X[2,9,3]
   + 12 replenishment_time <= 0
 time_constraint_9_4_for_minimum: - X[0,9,4] - X[1,9,4] - X[2,9,4]
   + 9 replenishment_time <= 0
 time_constraint_9_5_for_minimum: - X[0,9,5] - X[1,9,5] - X[2,9,5]
   + 8 replenishment_time <= 0
 time_constraint_9_6_for_minimum: - X[0,9,6] - X[1,9,6] - X[2,9,6]
   + 12 replenishment_time <= 0
 time_constraint_9_7_for_minimum: - X[0,9,7] - X[1,9,7] - X[2,9,7]
   + 7 replenishment_time <= 0
 time_constraint_9_8_for_minimum: - X[0,9,8] - X[1,9,8] - X[2,9,8]
   + 12 replenishment_time <= 0
 time_constraint_9_9_for_minimum: - X[0,9,9] - X[1,9,9] - X[2,9,9]
   + 9 replenishment_time <= 0
 time_constraint_9_10_for_minimum: - X[0,9,10] - X[1,9,10] - X[2,9,10]
   + 9 replenishment_time <= 0
 time_constraint_9_11_for_minimum: - X[0,9,11] - X[1,9,11] - X[2,9,11]
   + 13 replenishment_time <= 0
 time_constraint_9_12_for_minimum: - X[0,9,12] - X[1,9,12] - X[2,9,12]
   + 10 replenishment_time <= 0
 time_constraint_9_13_for_minimum: - X[0,9,13] - X[1,9,13] - X[2,9,13]
   + 11 replenishment_time <= 0
 time_constraint_9_14_for_minimum: - X[0,9,14] - X[1,9,14] - X[2,9,14]
   + 9 replenishment_time <= 0
 capacity_constraint_0_compartments: 21.94764977173206 X[0,0,0]
   + 18.90958015733879 X[0,0,1] + 15.46296202992948 X[0,0,2]
   + 19.39421532629649 X[0,0,3] + 18.7198031220944 X[0,0,4]
   + 20.9700324220033 X[0,0,5] + 16.34218169699033 X[0,0,6]
   + 17.27712896721836 X[0,0,7] + 23.1478241652728 X[0,0,8]
   + 17.64325526640213 X[0,0,9] + 19.10320204907163 X[0,0,10]
   + 24.35972176495781 X[0,0,11] + 17.75552463020854 X[0,0,12]
   + 16.45289958853564 X[0,0,13] + 22.02020129331452 X[0,0,14]
   + 21.94764977173206 X[0,1,0] + 18.90958015733879 X[0,1,1]
   + 15.46296202992948 X[0,1,2] + 19.39421532629649 X[0,1,3]
   + 18.7198031220944 X[0,1,4] + 20.9700324220033 X[0,1,5]
   + 16.34218169699033 X[0,1,6] + 17.27712896721836 X[0,1,7]
   + 23.1478241652728 X[0,1,8] + 17.64325526640213 X[0,1,9]
   + 19.10320204907163 X[0,1,10] + 24.35972176495781 X[0,1,11]
   + 17.75552463020854 X[0,1,12] + 16.45289958853564 X[0,1,13]
   + 22.02020129331452 X[0,1,14] + 21.94764977173206 X[0,2,0]
   + 18.90958015733879 X[0,2,1] + 15.46296202992948 X[0,2,2]
   + 19.39421532629649 X[0,2,3] + 18.7198031220944 X[0,2,4]
   + 20.9700324220033 X[0,2,5] + 16.34218169699033 X[0,2,6]
   + 17.27712896721836 X[0,2,7] + 23.1478241652728 X[0,2,8]
   + 17.64325526640213 X[0,2,9] + 19.10320204907163 X[0,2,10]
   + 24.35972176495781 X[0,2,11] + 17.75552463020854 X[0,2,12]
   + 16.45289958853564 X[0,2,13] + 22.02020129331452 X[0,2,14]
   + 21.94764977173206 X[0,3,0] + 18.90958015733879 X[0,3,1]
   + 15.46296202992948 X[0,3,2] + 19.39421532629649 X[0,3,3]
   + 18.7198031220944 X[0,3,4] + 20.9700324220033 X[0,3,5]
   + 16.34218169699033 X[0,3,6] + 17.27712896721836 X[0,3,7]
   + 23.1478241652728 X[0,3,8] + 17.64325526640213 X[0,3,9]
   + 19.10320204907163 X[0,3,10] + 24.35972176495781 X[0,3,11]
   + 17.75552463020854 X[0,3,12] + 16.45289958853564 X[0,3,13]
   + 22.02020129331452 X[0,3,14] + 21.94764977173206 X[0,4,0]
   + 18.90958015733879 X[0,4,1] + 15.46296202992948 X[0,4,2]
   + 19.39421532629649 X[0,4,3] + 18.7198031220944 X[0,4,4]
   + 20.9700324220033 X[0,4,5] + 16.34218169699033 X[0,4,6]
   + 17.27712896721836 X[0,4,7] + 23.1478241652728 X[0,4,8]
   + 17.64325526640213 X[0,4,9] + 19.10320204907163 X[0,4,10]
   + 24.35972176495781 X[0,4,11] + 17.75552463020854 X[0,4,12]
   + 16.45289958853564 X[0,4,13] + 22.02020129331452 X[0,4,14]
   + 21.94764977173206 X[0,5,0] + 18.90958015733879 X[0,5,1]
   + 15.46296202992948 X[0,5,2] + 19.39421532629649 X[0,5,3]
   + 18.7198031220944 X[0,5,4] + 20.9700324220033 X[0,5,5]
   + 16.34218169699033 X[0,5,6] + 17.27712896721836 X[0,5,7]
   + 23.1478241652728 X[0,5,8] + 17.64325526640213 X[0,5,9]
   + 19.10320204907163 X[0,5,10] + 24.35972176495781 X[0,5,11]
   + 17.75552463020854 X[0,5,12] + 16.45289958853564 X[0,5,13]
   + 22.02020129331452 X[0,5,14] + 21.94764977173206 X[0,6,0]
   + 18.90958015733879 X[0,6,1] + 15.46296202992948 X[0,6,2]
   + 19.39421532629649 X[0,6,3] + 18.7198031220944 X[0,6,4]
   + 20.9700324220033 X[0,6,5] + 16.34218169699033 X[0,6,6]
   + 17.27712896721836 X[0,6,7] + 23.1478241652728 X[0,6,8]
   + 17.64325526640213 X[0,6,9] + 19.10320204907163 X[0,6,10]
   + 24.35972176495781 X[0,6,11] + 17.75552463020854 X[0,6,12]
   + 16.45289958853564 X[0,6,13] + 22.02020129331452 X[0,6,14]
   + 21.94764977173206 X[0,7,0] + 18.90958015733879 X[0,7,1]
   + 15.46296202992948 X[0,7,2] + 19.39421532629649 X[0,7,3]
   + 18.7198031220944 X[0,7,4] + 20.9700324220033 X[0,7,5]
   + 16.34218169699033 X[0,7,6] + 17.27712896721836 X[0,7,7]
   + 23.1478241652728 X[0,7,8] + 17.64325526640213 X[0,7,9]
   + 19.10320204907163 X[0,7,10] + 24.35972176495781 X[0,7,11]
   + 17.75552463020854 X[0,7,12] + 16.45289958853564 X[0,7,13]
   + 22.02020129331452 X[0,7,14] + 21.94764977173206 X[0,8,0]
   + 18.90958015733879 X[0,8,1] + 15.46296202992948 X[0,8,2]
   + 19.39421532629649 X[0,8,3] + 18.7198031220944 X[0,8,4]
   + 20.9700324220033 X[0,8,5] + 16.34218169699033 X[0,8,6]
   + 17.27712896721836 X[0,8,7] + 23.1478241652728 X[0,8,8]
   + 17.64325526640213 X[0,8,9] + 19.10320204907163 X[0,8,10]
   + 24.35972176495781 X[0,8,11] + 17.75552463020854 X[0,8,12]
   + 16.45289958853564 X[0,8,13] + 22.02020129331452 X[0,8,14]
   + 21.94764977173206 X[0,9,0] + 18.90958015733879 X[0,9,1]
   + 15.46296202992948 X[0,9,2] + 19.39421532629649 X[0,9,3]
   + 18.7198031220944 X[0,9,4] + 20.9700324220033 X[0,9,5]
   + 16.34218169699033 X[0,9,6] + 17.27712896721836 X[0,9,7]
   + 23.1478241652728 X[0,9,8] + 17.64325526640213 X[0,9,9]
   + 19.10320204907163 X[0,9,10] + 24.35972176495781 X[0,9,11]
   + 17.75552463020854 X[0,9,12] + 16.45289958853564 X[0,9,13]
   + 22.02020129331452 X[0,9,14] <= 20897.50901886643
 capacity_constraint_1_compartments: 21.94764977173206 X[1,0,0]
   + 18.90958015733879 X[1,0,1] + 15.46296202992948 X[1,0,2]
   + 19.39421532629649 X[1,0,3] + 18.7198031220944 X[1,0,4]
   + 20.9700324220033 X[1,0,5] + 16.34218169699033 X[1,0,6]
   + 17.27712896721836 X[1,0,7] + 23.1478241652728 X[1,0,8]
   + 17.64325526640213 X[1,0,9] + 19.10320204907163 X[1,0,10]
   + 24.35972176495781 X[1,0,11] + 17.75552463020854 X[1,0,12]
   + 16.45289958853564 X[1,0,13] + 22.02020129331452 X[1,0,14]
   + 21.94764977173206 X[1,1,0] + 18.90958015733879 X[1,1,1]
   + 15.46296202992948 X[1,1,2] + 19.39421532629649 X[1,1,3]
   + 18.7198031220944 X[1,1,4] + 20.9700324220033 X[1,1,5]
   + 16.34218169699033 X[1,1,6] + 17.27712896721836 X[1,1,7]
   + 23.1478241652728 X[1,1,8] + 17.64325526640213 X[1,1,9]
   + 19.10320204907163 X[1,1,10] + 24.35972176495781 X[1,1,11]
   + 17.75552463020854 X[1,1,12] + 16.45289958853564 X[1,1,13]
   + 22.02020129331452 X[1,1,14] + 21.94764977173206 X[1,2,0]
   + 18.90958015733879 X[1,2,1] + 15.46296202992948 X[1,2,2]
   + 19.39421532629649 X[1,2,3] + 18.7198031220944 X[1,2,4]
   + 20.9700324220033 X[1,2,5] + 16.34218169699033 X[1,2,6]
   + 17.27712896721836 X[1,2,7] + 23.1478241652728 X[1,2,8]
   + 17.64325526640213 X[1,2,9] + 19.10320204907163 X[1,2,10]
   + 24.35972176495781 X[1,2,11] + 17.75552463020854 X[1,2,12]
   + 16.45289958853564 X[1,2,13] + 22.02020129331452 X[1,2,14]
   + 21.94764977173206 X[1,3,0] + 18.90958015733879 X[1,3,1]
   + 15.46296202992948 X[1,3,2] + 19.39421532629649 X[1,3,3]
   + 18.7198031220944 X[1,3,4] + 20.9700324220033 X[1,3,5]
   + 16.34218169699033 X[1,3,6] + 17.27712896721836 X[1,3,7]
   + 23.1478241652728 X[1,3,8] + 17.64325526640213 X[1,3,9]
   + 19.10320204907163 X[1,3,10] + 24.35972176495781 X[1,3,11]
   + 17.75552463020854 X[1,3,12] + 16.45289958853564 X[1,3,13]
   + 22.02020129331452 X[1,3,14] + 21.94764977173206 X[1,4,0]
   + 18.90958015733879 X[1,4,1] + 15.46296202992948 X[1,4,2]
   + 19.39421532629649 X[1,4,3] + 18.7198031220944 X[1,4,4]
   + 20.9700324220033 X[1,4,5] + 16.34218169699033 X[1,4,6]
   + 17.27712896721836 X[1,4,7] + 23.1478241652728 X[1,4,8]
   + 17.64325526640213 X[1,4,9] + 19.10320204907163 X[1,4,10]
   + 24.35972176495781 X[1,4,11] + 17.75552463020854 X[1,4,12]
   + 16.45289958853564 X[1,4,13] + 22.02020129331452 X[1,4,14]
   + 21.94764977173206 X[1,5,0] + 18.90958015733879 X[1,5,1]
   + 15.46296202992948 X[1,5,2] + 19.39421532629649 X[1,5,3]
   + 18.7198031220944 X[1,5,4] + 20.9700324220033 X[1,5,5]
   + 16.34218169699033 X[1,5,6] + 17.27712896721836 X[1,5,7]
   + 23.1478241652728 X[1,5,8] + 17.64325526640213 X[1,5,9]
   + 19.10320204907163 X[1,5,10] + 24.35972176495781 X[1,5,11]
   + 17.75552463020854 X[1,5,12] + 16.45289958853564 X[1,5,13]
   + 22.02020129331452 X[1,5,14] + 21.94764977173206 X[1,6,0]
   + 18.90958015733879 X[1,6,1] + 15.46296202992948 X[1,6,2]
   + 19.39421532629649 X[1,6,3] + 18.7198031220944 X[1,6,4]
   + 20.9700324220033 X[1,6,5] + 16.34218169699033 X[1,6,6]
   + 17.27712896721836 X[1,6,7] + 23.1478241652728 X[1,6,8]
   + 17.64325526640213 X[1,6,9] + 19.10320204907163 X[1,6,10]
   + 24.35972176495781 X[1,6,11] + 17.75552463020854 X[1,6,12]
   + 16.45289958853564 X[1,6,13] + 22.02020129331452 X[1,6,14]
   + 21.94764977173206 X[1,7,0] + 18.90958015733879 X[1,7,1]
   + 15.46296202992948 X[1,7,2] + 19.39421532629649 X[1,7,3]
   + 18.7198031220944 X[1,7,4] + 20.9700324220033 X[1,7,5]
   + 16.34218169699033 X[1,7,6] + 17.27712896721836 X[1,7,7]
   + 23.1478241652728 X[1,7,8] + 17.64325526640213 X[1,7,9]
   + 19.10320204907163 X[1,7,10] + 24.35972176495781 X[1,7,11]
   + 17.75552463020854 X[1,7,12] + 16.45289958853564 X[1,7,13]
   + 22.02020129331452 X[1,7,14] + 21.94764977173206 X[1,8,0]
   + 18.90958015733879 X[1,8,1] + 15.46296202992948 X[1,8,2]
   + 19.39421532629649 X[1,8,3] + 18.7198031220944 X[1,8,4]
   + 20.9700324220033 X[1,8,5] + 16.34218169699033 X[1,8,6]
   + 17.27712896721836 X[1,8,7] + 23.1478241652728 X[1,8,8]
   + 17.64325526640213 X[1,8,9] + 19.10320204907163 X[1,8,10]
   + 24.35972176495781 X[1,8,11] + 17.75552463020854 X[1,8,12]
   + 16.45289958853564 X[1,8,13] + 22.02020129331452 X[1,8,14]
   + 21.94764977173206 X[1,9,0] + 18.90958015733879 X[1,9,1]
   + 15.46296202992948 X[1,9,2] + 19.39421532629649 X[1,9,3]
   + 18.7198031220944 X[1,9,4] + 20.9700324220033 X[1,9,5]
   + 16.34218169699033 X[1,9,6] + 17.27712896721836 X[1,9,7]
   + 23.1478241652728 X[1,9,8] + 17.64325526640213 X[1,9,9]
   + 19.10320204907163 X[1,9,10] + 24.35972176495781 X[1,9,11]
   + 17.75552463020854 X[1,9,12] + 16.45289958853564 X[1,9,13]
   + 22.02020129331452 X[1,9,14] <= 21476.02293588319
 capacity_constraint_2_compartments: 21.94764977173206 X[2,0,0]
   + 18.90958015733879 X[2,0,1] + 15.46296202992948 X[2,0,2]
   + 19.39421532629649 X[2,0,3] + 18.7198031220944 X[2,0,4]
   + 20.9700324220033 X[2,0,5] + 16.34218169699033 X[2,0,6]
   + 17.27712896721836 X[2,0,7] + 23.1478241652728 X[2,0,8]
   + 17.64325526640213 X[2,0,9] + 19.10320204907163 X[2,0,10]
   + 24.35972176495781 X[2,0,11] + 17.75552463020854 X[2,0,12]
   + 16.45289958853564 X[2,0,13] + 22.02020129331452 X[2,0,14]
   + 21.94764977173206 X[2,1,0] + 18.90958015733879 X[2,1,1]
   + 15.46296202992948 X[2,1,2] + 19.39421532629649 X[2,1,3]
   + 18.7198031220944 X[2,1,4] + 20.9700324220033 X[2,1,5]
   + 16.34218169699033 X[2,1,6] + 17.27712896721836 X[2,1,7]
   + 23.1478241652728 X[2,1,8] + 17.64325526640213 X[2,1,9]
   + 19.10320204907163 X[2,1,10] + 24.35972176495781 X[2,1,11]
   + 17.75552463020854 X[2,1,12] + 16.45289958853564 X[2,1,13]
   + 22.02020129331452 X[2,1,14] + 21.94764977173206 X[2,2,0]
   + 18.90958015733879 X[2,2,1] + 15.46296202992948 X[2,2,2]
   + 19.39421532629649 X[2,2,3] + 18.7198031220944 X[2,2,4]
   + 20.9700324220033 X[2,2,5] + 16.34218169699033 X[2,2,6]
   + 17.27712896721836 X[2,2,7] + 23.1478241652728 X[2,2,8]
   + 17.64325526640213 X[2,2,9] + 19.10320204907163 X[2,2,10]
   + 24.35972176495781 X[2,2,11] + 17.75552463020854 X[2,2,12]
   + 16.45289958853564 X[2,2,13] + 22.02020129331452 X[2,2,14]
   + 21.94764977173206 X[2,3,0] + 18.90958015733879 X[2,3,1]
   + 15.46296202992948 X[2,3,2] + 19.39421532629649 X[2,3,3]
   + 18.7198031220944 X[2,3,4] + 20.9700324220033 X[2,3,5]
   + 16.34218169699033 X[2,3,6] + 17.27712896721836 X[2,3,7]
   + 23.1478241652728 X[2,3,8] + 17.64325526640213 X[2,3,9]
   + 19.10320204907163 X[2,3,10] + 24.35972176495781 X[2,3,11]
   + 17.75552463020854 X[2,3,12] + 16.45289958853564 X[2,3,13]
   + 22.02020129331452 X[2,3,14] + 21.94764977173206 X[2,4,0]
   + 18.90958015733879 X[2,4,1] + 15.46296202992948 X[2,4,2]
   + 19.39421532629649 X[2,4,3] + 18.7198031220944 X[2,4,4]
   + 20.9700324220033 X[2,4,5] + 16.34218169699033 X[2,4,6]
   + 17.27712896721836 X[2,4,7] + 23.1478241652728 X[2,4,8]
   + 17.64325526640213 X[2,4,9] + 19.10320204907163 X[2,4,10]
   + 24.35972176495781 X[2,4,11] + 17.75552463020854 X[2,4,12]
   + 16.45289958853564 X[2,4,13] + 22.02020129331452 X[2,4,14]
   + 21.94764977173206 X[2,5,0] + 18.90958015733879 X[2,5,1]
   + 15.46296202992948 X[2,5,2] + 19.39421532629649 X[2,5,3]
   + 18.7198031220944 X[2,5,4] + 20.9700324220033 X[2,5,5]
   + 16.34218169699033 X[2,5,6] + 17.27712896721836 X[2,5,7]
   + 23.1478241652728 X[2,5,8] + 17.64325526640213 X[2,5,9]
   + 19.10320204907163 X[2,5,10] + 24.35972176495781 X[2,5,11]
   + 17.75552463020854 X[2,5,12] + 16.45289958853564 X[2,5,13]
   + 22.02020129331452 X[2,5,14] + 21.94764977173206 X[2,6,0]
   + 18.90958015733879 X[2,6,1] + 15.46296202992948 X[2,6,2]
   + 19.39421532629649 X[2,6,3] + 18.7198031220944 X[2,6,4]
   + 20.9700324220033 X[2,6,5] + 16.34218169699033 X[2,6,6]
   + 17.27712896721836 X[2,6,7] + 23.1478241652728 X[2,6,8]
   + 17.64325526640213 X[2,6,9] + 19.10320204907163 X[2,6,10]
   + 24.35972176495781 X[2,6,11] + 17.75552463020854 X[2,6,12]
   + 16.45289958853564 X[2,6,13] + 22.02020129331452 X[2,6,14]
   + 21.94764977173206 X[2,7,0] + 18.90958015733879 X[2,7,1]
   + 15.46296202992948 X[2,7,2] + 19.39421532629649 X[2,7,3]
   + 18.7198031220944 X[2,7,4] + 20.9700324220033 X[2,7,5]
   + 16.34218169699033 X[2,7,6] + 17.27712896721836 X[2,7,7]
   + 23.1478241652728 X[2,7,8] + 17.64325526640213 X[2,7,9]
   + 19.10320204907163 X[2,7,10] + 24.35972176495781 X[2,7,11]
   + 17.75552463020854 X[2,7,12] + 16.45289958853564 X[2,7,13]
   + 22.02020129331452 X[2,7,14] + 21.94764977173206 X[2,8,0]
   + 18.90958015733879 X[2,8,1] + 15.46296202992948 X[2,8,2]
   + 19.39421532629649 X[2,8,3] + 18.7198031220944 X[2,8,4]
   + 20.9700324220033 X[2,8,5] + 16.34218169699033 X[2,8,6]
   + 17.27712896721836 X[2,8,7] + 23.1478241652728 X[2,8,8]
   + 17.64325526640213 X[2,8,9] + 19.10320204907163 X[2,8,10]
   + 24.35972176495781 X[2,8,11] + 17.75552463020854 X[2,8,12]
   + 16.45289958853564 X[2,8,13] + 22.02020129331452 X[2,8,14]
   + 21.94764977173206 X[2,9,0] + 18.90958015733879 X[2,9,1]
   + 15.46296202992948 X[2,9,2] + 19.39421532629649 X[2,9,3]
   + 18.7198031220944 X[2,9,4] + 20.9700324220033 X[2,9,5]
   + 16.34218169699033 X[2,9,6] + 17.27712896721836 X[2,9,7]
   + 23.1478241652728 X[2,9,8] + 17.64325526640213 X[2,9,9]
   + 19.10320204907163 X[2,9,10] + 24.35972176495781 X[2,9,11]
   + 17.75552463020854 X[2,9,12] + 16.45289958853564 X[2,9,13]
   + 22.02020129331452 X[2,9,14] <= 20390.81679368855
Bounds
Generals
 X[0,0,0] X[0,0,1] X[0,0,2] X[0,0,3] X[0,0,4] X[0,0,5] X[0,0,6] X[0,0,7]
 X[0,0,8] X[0,0,9] X[0,0,10] X[0,0,11] X[0,0,12] X[0,0,13] X[0,0,14]
 X[0,1,0] X[0,1,1] X[0,1,2] X[0,1,3] X[0,1,4] X[0,1,5] X[0,1,6] X[0,1,7]
 X[0,1,8] X[0,1,9] X[0,1,10] X[0,1,11] X[0,1,12] X[0,1,13] X[0,1,14]
 X[0,2,0] X[0,2,1] X[0,2,2] X[0,2,3] X[0,2,4] X[0,2,5] X[0,2,6] X[0,2,7]
 X[0,2,8] X[0,2,9] X[0,2,10] X[0,2,11] X[0,2,12] X[0,2,13] X[0,2,14]
 X[0,3,0] X[0,3,1] X[0,3,2] X[0,3,3] X[0,3,4] X[0,3,5] X[0,3,6] X[0,3,7]
 X[0,3,8] X[0,3,9] X[0,3,10] X[0,3,11] X[0,3,12] X[0,3,13] X[0,3,14]
 X[0,4,0] X[0,4,1] X[0,4,2] X[0,4,3] X[0,4,4] X[0,4,5] X[0,4,6] X[0,4,7]
 X[0,4,8] X[0,4,9] X[0,4,10] X[0,4,11] X[0,4,12] X[0,4,13] X[0,4,14]
 X[0,5,0] X[0,5,1] X[0,5,2] X[0,5,3] X[0,5,4] X[0,5,5] X[0,5,6] X[0,5,7]
 X[0,5,8] X[0,5,9] X[0,5,10] X[0,5,11] X[0,5,12] X[0,5,13] X[0,5,14]
 X[0,6,0] X[0,6,1] X[0,6,2] X[0,6,3] X[0,6,4] X[0,6,5] X[0,6,6] X[0,6,7]
 X[0,6,8] X[0,6,9] X[0,6,10] X[0,6,11] X[0,6,12] X[0,6,13] X[0,6,14]
 X[0,7,0] X[0,7,1] X[0,7,2] X[0,7,3] X[0,7,4] X[0,7,5] X[0,7,6] X[0,7,7]
 X[0,7,8] X[0,7,9] X[0,7,10] X[0,7,11] X[0,7,12] X[0,7,13] X[0,7,14]
 X[0,8,0] X[0,8,1] X[0,8,2] X[0,8,3] X[0,8,4] X[0,8,5] X[0,8,6] X[0,8,7]
 X[0,8,8] X[0,8,9] X[0,8,10] X[0,8,11] X[0,8,12] X[0,8,13] X[0,8,14]
 X[0,9,0] X[0,9,1] X[0,9,2] X[0,9,3] X[0,9,4] X[0,9,5] X[0,9,6] X[0,9,7]
 X[0,9,8] X[0,9,9] X[0,9,10] X[0,9,11] X[0,9,12] X[0,9,13] X[0,9,14]
 X[1,0,0] X[1,0,1] X[1,0,2] X[1,0,3] X[1,0,4] X[1,0,5] X[1,0,6] X[1,0,7]
 X[1,0,8] X[1,0,9] X[1,0,10] X[1,0,11] X[1,0,12] X[1,0,13] X[1,0,14]
 X[1,1,0] X[1,1,1] X[1,1,2] X[1,1,3] X[1,1,4] X[1,1,5] X[1,1,6] X[1,1,7]
 X[1,1,8] X[1,1,9] X[1,1,10] X[1,1,11] X[1,1,12] X[1,1,13] X[1,1,14]
 X[1,2,0] X[1,2,1] X[1,2,2] X[1,2,3] X[1,2,4] X[1,2,5] X[1,2,6] X[1,2,7]
 X[1,2,8] X[1,2,9] X[1,2,10] X[1,2,11] X[1,2,12] X[1,2,13] X[1,2,14]
 X[1,3,0] X[1,3,1] X[1,3,2] X[1,3,3] X[1,3,4] X[1,3,5] X[1,3,6] X[1,3,7]
 X[1,3,8] X[1,3,9] X[1,3,10] X[1,3,11] X[1,3,12] X[1,3,13] X[1,3,14]
 X[1,4,0] X[1,4,1] X[1,4,2] X[1,4,3] X[1,4,4] X[1,4,5] X[1,4,6] X[1,4,7]
 X[1,4,8] X[1,4,9] X[1,4,10] X[1,4,11] X[1,4,12] X[1,4,13] X[1,4,14]
 X[1,5,0] X[1,5,1] X[1,5,2] X[1,5,3] X[1,5,4] X[1,5,5] X[1,5,6] X[1,5,7]
 X[1,5,8] X[1,5,9] X[1,5,10] X[1,5,11] X[1,5,12] X[1,5,13] X[1,5,14]
 X[1,6,0] X[1,6,1] X[1,6,2] X[1,6,3] X[1,6,4] X[1,6,5] X[1,6,6] X[1,6,7]
 X[1,6,8] X[1,6,9] X[1,6,10] X[1,6,11] X[1,6,12] X[1,6,13] X[1,6,14]
 X[1,7,0] X[1,7,1] X[1,7,2] X[1,7,3] X[1,7,4] X[1,7,5] X[1,7,6] X[1,7,7]
 X[1,7,8] X[1,7,9] X[1,7,10] X[1,7,11] X[1,7,12] X[1,7,13] X[1,7,14]
 X[1,8,0] X[1,8,1] X[1,8,2] X[1,8,3] X[1,8,4] X[1,8,5] X[1,8,6] X[1,8,7]
 X[1,8,8] X[1,8,9] X[1,8,10] X[1,8,11] X[1,8,12] X[1,8,13] X[1,8,14]
 X[1,9,0] X[1,9,1] X[1,9,2] X[1,9,3] X[1,9,4] X[1,9,5] X[1,9,6] X[1,9,7]
 X[1,9,8] X[1,9,9] X[1,9,10] X[1,9,11] X[1,9,12] X[1,9,13] X[1,9,14]
 X[2,0,0] X[2,0,1] X[2,0,2] X[2,0,3] X[2,0,4] X[2,0,5] X[2,0,6] X[2,0,7]
 X[2,0,8] X[2,0,9] X[2,0,10] X[2,0,11] X[2,0,12] X[2,0,13] X[2,0,14]
 X[2,1,0] X[2,1,1] X[2,1,2] X[2,1,3] X[2,1,4] X[2,1,5] X[2,1,6] X[2,1,7]
 X[2,1,8] X[2,1,9] X[2,1,10] X[2,1,11] X[2,1,12] X[2,1,13] X[2,1,14]
 X[2,2,0] X[2,2,1] X[2,2,2] X[2,2,3] X[2,2,4] X[2,2,5] X[2,2,6] X[2,2,7]
 X[2,2,8] X[2,2,9] X[2,2,10] X[2,2,11] X[2,2,12] X[2,2,13] X[2,2,14]
 X[2,3,0] X[2,3,1] X[2,3,2] X[2,3,3] X[2,3,4] X[2,3,5] X[2,3,6] X[2,3,7]
 X[2,3,8] X[2,3,9] X[2,3,10] X[2,3,11] X[2,3,12] X[2,3,13] X[2,3,14]
 X[2,4,0] X[2,4,1] X[2,4,2] X[2,4,3] X[2,4,4] X[2,4,5] X[2,4,6] X[2,4,7]
 X[2,4,8] X[2,4,9] X[2,4,10] X[2,4,11] X[2,4,12] X[2,4,13] X[2,4,14]
 X[2,5,0] X[2,5,1] X[2,5,2] X[2,5,3] X[2,5,4] X[2,5,5] X[2,5,6] X[2,5,7]
 X[2,5,8] X[2,5,9] X[2,5,10] X[2,5,11] X[2,5,12] X[2,5,13] X[2,5,14]
 X[2,6,0] X[2,6,1] X[2,6,2] X[2,6,3] X[2,6,4] X[2,6,5] X[2,6,6] X[2,6,7]
 X[2,6,8] X[2,6,9] X[2,6,10] X[2,6,11] X[2,6,12] X[2,6,13] X[2,6,14]
 X[2,7,0] X[2,7,1] X[2,7,2] X[2,7,3] X[2,7,4] X[2,7,5] X[2,7,6] X[2,7,7]
 X[2,7,8] X[2,7,9] X[2,7,10] X[2,7,11] X[2,7,12] X[2,7,13] X[2,7,14]
 X[2,8,0] X[2,8,1] X[2,8,2] X[2,8,3] X[2,8,4] X[2,8,5] X[2,8,6] X[2,8,7]
 X[2,8,8] X[2,8,9] X[2,8,10] X[2,8,11] X[2,8,12] X[2,8,13] X[2,8,14]
 X[2,9,0] X[2,9,1] X[2,9,2] X[2,9,3] X[2,9,4] X[2,9,5] X[2,9,6] X[2,9,7]
 X[2,9,8] X[2,9,9] X[2,9,10] X[2,9,11] X[2,9,12] X[2,9,13] X[2,9,14]
End
